p cnf 144 1
144 0
w 1 0.968461
w 2 1 0
w 2 -1 1
w 3 2 1
w 3 -2 0
w 4 3 0.899639
w 4 -3 0.0317042
w 5 4 1
w 5 -4 0
w 6 5 0
w 6 -5 1
w 7 6 1
w 7 -6 0
w 8 7 1
w 8 -7 0
w 9 8 0
w 9 -8 1
w 10 9 0
w 10 -9 1
w 11 10 0.695938
w 11 -10 0.601985
w 12 11 1
w 12 -11 0
w 13 1 0.0595597
w 13 -1 0.929079
w 14 13 2 0
w 14 13 -2 1
w 14 -13 2 0
w 14 -13 -2 1
w 15 14 3 0.832412
w 15 14 -3 0.734976
w 15 -14 3 0.884439
w 15 -14 -3 0.732051
w 16 15 4 0.0978532
w 16 15 -4 0.755806
w 16 -15 4 0.889688
w 16 -15 -4 0.147196
w 17 16 5 0.264577
w 17 16 -5 0.298959
w 17 -16 5 0.5649
w 17 -16 -5 0.966745
w 18 17 6 0.303099
w 18 17 -6 0.941208
w 18 -17 6 0.720904
w 18 -17 -6 0.999037
w 19 18 7 1
w 19 18 -7 0
w 19 -18 7 0
w 19 -18 -7 0
w 20 19 8 1
w 20 19 -8 0
w 20 -19 8 0
w 20 -19 -8 1
w 21 20 9 1
w 21 20 -9 1
w 21 -20 9 1
w 21 -20 -9 0
w 22 21 10 1
w 22 21 -10 0
w 22 -21 10 1
w 22 -21 -10 0
w 23 22 11 0.869986
w 23 22 -11 0.0777911
w 23 -22 11 0.0871134
w 23 -22 -11 0.434886
w 24 23 12 1
w 24 23 -12 1
w 24 -23 12 0
w 24 -23 -12 0
w 25 13 0
w 25 -13 1
w 26 25 14 0
w 26 25 -14 0
w 26 -25 14 0
w 26 -25 -14 1
w 27 26 15 0
w 27 26 -15 1
w 27 -26 15 1
w 27 -26 -15 0
w 28 27 16 1
w 28 27 -16 1
w 28 -27 16 1
w 28 -27 -16 0
w 29 28 17 0
w 29 28 -17 1
w 29 -28 17 1
w 29 -28 -17 0
w 30 29 18 1
w 30 29 -18 1
w 30 -29 18 0
w 30 -29 -18 0
w 31 30 19 1
w 31 30 -19 0
w 31 -30 19 0
w 31 -30 -19 1
w 32 31 20 0
w 32 31 -20 0
w 32 -31 20 1
w 32 -31 -20 0
w 33 32 21 1
w 33 32 -21 1
w 33 -32 21 1
w 33 -32 -21 0
w 34 33 22 0
w 34 33 -22 0
w 34 -33 22 1
w 34 -33 -22 1
w 35 34 23 0
w 35 34 -23 1
w 35 -34 23 1
w 35 -34 -23 0
w 36 35 24 0
w 36 35 -24 1
w 36 -35 24 1
w 36 -35 -24 0
w 37 25 0
w 37 -25 1
w 38 37 26 0.883345
w 38 37 -26 0.556336
w 38 -37 26 0.559697
w 38 -37 -26 0.183041
w 39 38 27 0
w 39 38 -27 1
w 39 -38 27 0
w 39 -38 -27 1
w 40 39 28 0.249599
w 40 39 -28 0.230579
w 40 -39 28 0.443703
w 40 -39 -28 0.596029
w 41 40 29 1
w 41 40 -29 1
w 41 -40 29 0
w 41 -40 -29 1
w 42 41 30 1
w 42 41 -30 0
w 42 -41 30 1
w 42 -41 -30 0
w 43 42 31 0
w 43 42 -31 1
w 43 -42 31 0
w 43 -42 -31 1
w 44 43 32 0
w 44 43 -32 0
w 44 -43 32 0
w 44 -43 -32 1
w 45 44 33 0
w 45 44 -33 1
w 45 -44 33 1
w 45 -44 -33 0
w 46 45 34 0.589539
w 46 45 -34 0.45923
w 46 -45 34 0.0689199
w 46 -45 -34 0.0332419
w 47 46 35 0
w 47 46 -35 1
w 47 -46 35 1
w 47 -46 -35 1
w 48 47 36 0.6471
w 48 47 -36 0.945824
w 48 -47 36 0.120659
w 48 -47 -36 0.52697
w 49 37 0
w 49 -37 1
w 50 49 38 0
w 50 49 -38 0
w 50 -49 38 1
w 50 -49 -38 1
w 51 50 39 1
w 51 50 -39 0
w 51 -50 39 0
w 51 -50 -39 1
w 52 51 40 0.609618
w 52 51 -40 0.178857
w 52 -51 40 0.600269
w 52 -51 -40 0.199156
w 53 52 41 0
w 53 52 -41 0
w 53 -52 41 0
w 53 -52 -41 1
w 54 53 42 1
w 54 53 -42 0
w 54 -53 42 0
w 54 -53 -42 0
w 55 54 43 1
w 55 54 -43 0
w 55 -54 43 0
w 55 -54 -43 1
w 56 55 44 0
w 56 55 -44 0
w 56 -55 44 0
w 56 -55 -44 1
w 57 56 45 0.139173
w 57 56 -45 0.150226
w 57 -56 45 0.16628
w 57 -56 -45 0.927638
w 58 57 46 0
w 58 57 -46 1
w 58 -57 46 0
w 58 -57 -46 0
w 59 58 47 1
w 59 58 -47 1
w 59 -58 47 0
w 59 -58 -47 1
w 60 59 48 0
w 60 59 -48 1
w 60 -59 48 1
w 60 -59 -48 1
w 61 49 1
w 61 -49 0
w 62 61 50 1
w 62 61 -50 0
w 62 -61 50 1
w 62 -61 -50 1
w 63 62 51 1
w 63 62 -51 0
w 63 -62 51 1
w 63 -62 -51 0
w 64 63 52 0.133422
w 64 63 -52 0.645857
w 64 -63 52 0.906971
w 64 -63 -52 0.252875
w 65 64 53 0
w 65 64 -53 1
w 65 -64 53 0
w 65 -64 -53 0
w 66 65 54 1
w 66 65 -54 0
w 66 -65 54 1
w 66 -65 -54 0
w 67 66 55 0
w 67 66 -55 1
w 67 -66 55 0
w 67 -66 -55 1
w 68 67 56 0
w 68 67 -56 0
w 68 -67 56 0
w 68 -67 -56 1
w 69 68 57 0
w 69 68 -57 1
w 69 -68 57 0
w 69 -68 -57 0
w 70 69 58 1
w 70 69 -58 0
w 70 -69 58 1
w 70 -69 -58 1
w 71 70 59 1
w 71 70 -59 1
w 71 -70 59 0
w 71 -70 -59 1
w 72 71 60 0
w 72 71 -60 1
w 72 -71 60 0
w 72 -71 -60 0
w 73 61 1
w 73 -61 0
w 74 73 62 0.271435
w 74 73 -62 0.152203
w 74 -73 62 0.757554
w 74 -73 -62 0.822796
w 75 74 63 0
w 75 74 -63 1
w 75 -74 63 0
w 75 -74 -63 0
w 76 75 64 0.924635
w 76 75 -64 0.895211
w 76 -75 64 0.610636
w 76 -75 -64 0.381061
w 77 76 65 0.503236
w 77 76 -65 0.483344
w 77 -76 65 0.796847
w 77 -76 -65 0.648711
w 78 77 66 1
w 78 77 -66 0
w 78 -77 66 0
w 78 -77 -66 0
w 79 78 67 0
w 79 78 -67 0
w 79 -78 67 0
w 79 -78 -67 1
w 80 79 68 0
w 80 79 -68 0
w 80 -79 68 1
w 80 -79 -68 1
w 81 80 69 1
w 81 80 -69 0
w 81 -80 69 1
w 81 -80 -69 0
w 82 81 70 0.121261
w 82 81 -70 0.972781
w 82 -81 70 0.39074
w 82 -81 -70 0.502322
w 83 82 71 0.893976
w 83 82 -71 0.985667
w 83 -82 71 0.662172
w 83 -82 -71 0.542687
w 84 83 72 1
w 84 83 -72 0
w 84 -83 72 1
w 84 -83 -72 1
w 85 73 1
w 85 -73 0
w 86 85 74 0.248848
w 86 85 -74 0.860555
w 86 -85 74 0.387701
w 86 -85 -74 0.99228
w 87 86 75 0.0923531
w 87 86 -75 0.493266
w 87 -86 75 0.744093
w 87 -86 -75 0.341194
w 88 87 76 1
w 88 87 -76 1
w 88 -87 76 1
w 88 -87 -76 0
w 89 88 77 1
w 89 88 -77 1
w 89 -88 77 0
w 89 -88 -77 1
w 90 89 78 0
w 90 89 -78 0
w 90 -89 78 1
w 90 -89 -78 1
w 91 90 79 1
w 91 90 -79 0
w 91 -90 79 1
w 91 -90 -79 0
w 92 91 80 1
w 92 91 -80 0
w 92 -91 80 1
w 92 -91 -80 1
w 93 92 81 0.229469
w 93 92 -81 0.876422
w 93 -92 81 0.32037
w 93 -92 -81 0.973562
w 94 93 82 1
w 94 93 -82 1
w 94 -93 82 0
w 94 -93 -82 0
w 95 94 83 0
w 95 94 -83 1
w 95 -94 83 1
w 95 -94 -83 0
w 96 95 84 1
w 96 95 -84 0
w 96 -95 84 1
w 96 -95 -84 0
w 97 85 1
w 97 -85 0
w 98 97 86 0
w 98 97 -86 1
w 98 -97 86 0
w 98 -97 -86 1
w 99 98 87 0
w 99 98 -87 0
w 99 -98 87 1
w 99 -98 -87 1
w 100 99 88 0
w 100 99 -88 1
w 100 -99 88 1
w 100 -99 -88 1
w 101 100 89 1
w 101 100 -89 0
w 101 -100 89 0
w 101 -100 -89 0
w 102 101 90 1
w 102 101 -90 0
w 102 -101 90 0
w 102 -101 -90 0
w 103 102 91 0.573857
w 103 102 -91 0.740342
w 103 -102 91 0.808837
w 103 -102 -91 0.062815
w 104 103 92 0.200628
w 104 103 -92 0.112888
w 104 -103 92 0.583993
w 104 -103 -92 0.0704062
w 105 104 93 0
w 105 104 -93 0
w 105 -104 93 0
w 105 -104 -93 1
w 106 105 94 1
w 106 105 -94 0
w 106 -105 94 1
w 106 -105 -94 0
w 107 106 95 0.185522
w 107 106 -95 0.301301
w 107 -106 95 0.414878
w 107 -106 -95 0.342318
w 108 107 96 0.440335
w 108 107 -96 0.441841
w 108 -107 96 0.866226
w 108 -107 -96 0.604256
w 109 97 1
w 109 -97 0
w 110 109 98 0
w 110 109 -98 0
w 110 -109 98 1
w 110 -109 -98 1
w 111 110 99 0
w 111 110 -99 1
w 111 -110 99 0
w 111 -110 -99 0
w 112 111 100 1
w 112 111 -100 0
w 112 -111 100 0
w 112 -111 -100 1
w 113 112 101 0
w 113 112 -101 0
w 113 -112 101 1
w 113 -112 -101 0
w 114 113 102 0
w 114 113 -102 0
w 114 -113 102 0
w 114 -113 -102 1
w 115 114 103 0.7844
w 115 114 -103 0.644703
w 115 -114 103 0.0539576
w 115 -114 -103 0.444041
w 116 115 104 0.0159503
w 116 115 -104 0.91252
w 116 -115 104 0.0637438
w 116 -115 -104 0.847123
w 117 116 105 1
w 117 116 -105 0
w 117 -116 105 1
w 117 -116 -105 1
w 118 117 106 0.33938
w 118 117 -106 0.0336889
w 118 -117 106 0.870253
w 118 -117 -106 0.074137
w 119 118 107 1
w 119 118 -107 0
w 119 -118 107 0
w 119 -118 -107 1
w 120 119 108 0.576885
w 120 119 -108 0.922247
w 120 -119 108 0.375377
w 120 -119 -108 0.495059
w 121 109 0.207684
w 121 -109 0.279459
w 122 121 110 1
w 122 121 -110 1
w 122 -121 110 1
w 122 -121 -110 0
w 123 122 111 0
w 123 122 -111 0
w 123 -122 111 1
w 123 -122 -111 0
w 124 123 112 1
w 124 123 -112 1
w 124 -123 112 0
w 124 -123 -112 1
w 125 124 113 0
w 125 124 -113 1
w 125 -124 113 1
w 125 -124 -113 0
w 126 125 114 0
w 126 125 -114 0
w 126 -125 114 0
w 126 -125 -114 1
w 127 126 115 0
w 127 126 -115 1
w 127 -126 115 0
w 127 -126 -115 0
w 128 127 116 1
w 128 127 -116 1
w 128 -127 116 1
w 128 -127 -116 0
w 129 128 117 1
w 129 128 -117 0
w 129 -128 117 1
w 129 -128 -117 1
w 130 129 118 1
w 130 129 -118 0
w 130 -129 118 1
w 130 -129 -118 0
w 131 130 119 1
w 131 130 -119 0
w 131 -130 119 0
w 131 -130 -119 0
w 132 131 120 1
w 132 131 -120 0
w 132 -131 120 0
w 132 -131 -120 0
w 133 121 0.67409
w 133 -121 0.023312
w 134 133 122 0
w 134 133 -122 0
w 134 -133 122 0
w 134 -133 -122 1
w 135 134 123 1
w 135 134 -123 0
w 135 -134 123 1
w 135 -134 -123 1
w 136 135 124 0.544578
w 136 135 -124 0.637917
w 136 -135 124 0.475053
w 136 -135 -124 0.375801
w 137 136 125 0
w 137 136 -125 0
w 137 -136 125 1
w 137 -136 -125 0
w 138 137 126 1
w 138 137 -126 0
w 138 -137 126 0
w 138 -137 -126 0
w 139 138 127 0
w 139 138 -127 0
w 139 -138 127 1
w 139 -138 -127 0
w 140 139 128 0.527594
w 140 139 -128 0.388097
w 140 -139 128 0.156638
w 140 -139 -128 0.377401
w 141 140 129 1
w 141 140 -129 0
w 141 -140 129 0
w 141 -140 -129 0
w 142 141 130 0
w 142 141 -130 0
w 142 -141 130 1
w 142 -141 -130 0
w 143 142 131 0
w 143 142 -131 0
w 143 -142 131 1
w 143 -142 -131 0
w 144 143 132 0
w 144 143 -132 0
w 144 -143 132 0
w 144 -143 -132 1